NAME : n60w140.002.647.tour
COMMENT : Length = 647
COMMENT : Found by LKH [Keld Helsgaun] Tue Nov  7 19:39:19 2017
TYPE : TOUR
DIMENSION : 61
TOUR_SECTION
1
31
48
11
32
22
20
16
42
17
56
19
59
43
3
18
45
4
36
37
13
33
10
40
38
26
5
30
7
46
39
8
14
9
24
52
47
35
57
21
29
28
54
44
15
51
49
41
23
60
50
25
58
27
2
34
55
53
12
61
6
-1
EOF
